75
2 1 108
3 1 404
3 2 903
4 1 637
4 2 967
4 3 6
5 1 892
5 2 768
5 3 833
5 4 254
6 1 526
6 2 972
6 3 990
6 4 889
6 5 118
7 1 597
7 2 6
7 3 71
7 4 469
7 5 234
7 6 868
8 1 639
8 2 93
8 3 112
8 4 224
8 5 362
8 6 205
8 7 190
9 1 619
9 2 123
9 3 482
9 4 991
9 5 846
9 6 239
9 7 849
9 8 505
10 1 800
10 2 339
10 3 806
10 4 727
10 5 451
10 6 513
10 7 23
10 8 642
10 9 830
11 1 653
11 2 240
11 3 730
11 4 142
11 5 197
11 6 699
11 7 299
11 8 398
11 9 699
11 10 626
12 1 220
12 2 190
12 3 929
12 4 514
12 5 878
12 6 477
12 7 438
12 8 212
12 9 403
12 10 537
12 11 788
13 1 62
13 2 498
13 3 431
13 4 873
13 5 615
13 6 435
13 7 640
13 8 40
13 9 647
13 10 31
13 11 724
13 12 934
14 1 504
14 2 668
14 3 161
14 4 279
14 5 20
14 6 683
14 7 720
14 8 12
14 9 508
14 10 682
14 11 12
14 12 486
14 13 586
15 1 605
15 2 92
15 3 661
15 4 841
15 5 602
15 6 241
15 7 494
15 8 578
15 9 39
15 10 313
15 11 955
15 12 162
15 13 200
15 14 266
16 1 367
16 2 713
16 3 503
16 4 761
16 5 12
16 6 143
16 7 287
16 8 962
16 9 187
16 10 809
16 11 508
16 12 907
16 13 167
16 14 267
16 15 880
17 1 90
17 2 747
17 3 890
17 4 310
17 5 115
17 6 319
17 7 353
17 8 664
17 9 577
17 10 666
17 11 245
17 12 201
17 13 523
17 14 926
17 15 293
17 16 233
18 1 141
18 2 401
18 3 978
18 4 828
18 5 540
18 6 167
18 7 522
18 8 621
18 9 767
18 10 674
18 11 518
18 12 54
18 13 425
18 14 763
18 15 700
18 16 611
18 17 528
19 1 816
19 2 605
19 3 854
19 4 473
19 5 956
19 6 130
19 7 340
19 8 253
19 9 509
19 10 252
19 11 736
19 12 296
19 13 151
19 14 387
19 15 677
19 16 548
19 17 447
19 18 177
20 1 214
20 2 699
20 3 715
20 4 674
20 5 894
20 6 655
20 7 404
20 8 206
20 9 802
20 10 660
20 11 440
20 12 402
20 13 123
20 14 671
20 15 213
20 16 151
20 17 48
20 18 899
20 19 165
21 1 489
21 2 88
21 3 602
21 4 154
21 5 663
21 6 106
21 7 554
21 8 51
21 9 889
21 10 640
21 11 776
21 12 251
21 13 549
21 14 338
21 15 447
21 16 33
21 17 832
21 18 556
21 19 93
21 20 985
22 1 73
22 2 454
22 3 453
22 4 910
22 5 298
22 6 141
22 7 635
22 8 912
22 9 722
22 10 691
22 11 461
22 12 616
22 13 208
22 14 104
22 15 108
22 16 691
22 17 945
22 18 515
22 19 439
22 20 137
22 21 837
23 1 226
23 2 648
23 3 21
23 4 371
23 5 374
23 6 95
23 7 594
23 8 954
23 9 307
23 10 465
23 11 998
23 12 989
23 13 973
23 14 630
23 15 987
23 16 177
23 17 904
23 18 834
23 19 368
23 20 811
23 21 594
23 22 95
24 1 94
24 2 61
24 3 351
24 4 937
24 5 200
24 6 504
24 7 940
24 8 845
24 9 36
24 10 402
24 11 564
24 12 56
24 13 466
24 14 489
24 15 29
24 16 588
24 17 1000
24 18 261
24 19 132
24 20 606
24 21 29
24 22 25
24 23 609
25 1 533
25 2 620
25 3 219
25 4 193
25 5 518
25 6 548
25 7 750
25 8 615
25 9 137
25 10 522
25 11 348
25 12 596
25 13 475
25 14 783
25 15 210
25 16 162
25 17 945
25 18 525
25 19 409
25 20 845
25 21 489
25 22 821
25 23 851
25 24 572
26 1 34
26 2 6
26 3 765
26 4 334
26 5 330
26 6 702
26 7 985
26 8 931
26 9 552
26 10 924
26 11 530
26 12 362
26 13 298
26 14 964
26 15 233
26 16 691
26 17 852
26 18 999
26 19 427
26 20 433
26 21 850
26 22 593
26 23 934
26 24 799
26 25 726
27 1 564
27 2 875
27 3 345
27 4 565
27 5 883
27 6 34
27 7 864
27 8 239
27 9 561
27 10 801
27 11 563
27 12 965
27 13 708
27 14 940
27 15 861
27 16 655
27 17 209
27 18 671
27 19 371
27 20 683
27 21 706
27 22 854
27 23 867
27 24 967
27 25 829
27 26 241
28 1 324
28 2 471
28 3 868
28 4 76
28 5 333
28 6 521
28 7 325
28 8 538
28 9 465
28 10 563
28 11 40
28 12 778
28 13 392
28 14 234
28 15 831
28 16 558
28 17 844
28 18 884
28 19 838
28 20 752
28 21 703
28 22 920
28 23 17
28 24 190
28 25 816
28 26 607
28 27 468
29 1 634
29 2 329
29 3 203
29 4 550
29 5 857
29 6 621
29 7 555
29 8 958
29 9 97
29 10 146
29 11 536
29 12 222
29 13 389
29 14 753
29 15 954
29 16 302
29 17 518
29 18 298
29 19 809
29 20 235
29 21 610
29 22 616
29 23 30
29 24 13
29 25 612
29 26 174
29 27 65
29 28 145
30 1 152
30 2 959
30 3 960
30 4 584
30 5 553
30 6 432
30 7 803
30 8 968
30 9 990
30 10 603
30 11 660
30 12 362
30 13 51
30 14 549
30 15 386
30 16 946
30 17 202
30 18 944
30 19 933
30 20 334
30 21 913
30 22 410
30 23 46
30 24 474
30 25 448
30 26 757
30 27 458
30 28 315
30 29 570
31 1 436
31 2 983
31 3 682
31 4 674
31 5 764
31 6 123
31 7 56
31 8 83
31 9 737
31 10 65
31 11 187
31 12 539
31 13 505
31 14 214
31 15 755
31 16 115
31 17 813
31 18 622
31 19 494
31 20 66
31 21 987
31 22 950
31 23 484
31 24 380
31 25 278
31 26 844
31 27 563
31 28 9
31 29 617
31 30 855
32 1 20
32 2 64
32 3 127
32 4 269
32 5 41
32 6 450
32 7 921
32 8 496
32 9 588
32 10 717
32 11 37
32 12 875
32 13 642
32 14 116
32 15 552
32 16 51
32 17 21
32 18 120
32 19 201
32 20 266
32 21 198
32 22 917
32 23 76
32 24 237
32 25 820
32 26 622
32 27 197
32 28 457
32 29 864
32 30 212
32 31 51
33 1 80
33 2 627
33 3 452
33 4 393
33 5 753
33 6 986
33 7 289
33 8 886
33 9 30
33 10 617
33 11 502
33 12 391
33 13 238
33 14 128
33 15 576
33 16 985
33 17 935
33 18 284
33 19 85
33 20 1000
33 21 341
33 22 763
33 23 68
33 24 680
33 25 348
33 26 153
33 27 162
33 28 246
33 29 20
33 30 113
33 31 485
33 32 447
34 1 689
34 2 893
34 3 544
34 4 918
34 5 32
34 6 664
34 7 643
34 8 903
34 9 761
34 10 340
34 11 569
34 12 154
34 13 804
34 14 832
34 15 552
34 16 97
34 17 100
34 18 937
34 19 745
34 20 549
34 21 399
34 22 290
34 23 741
34 24 580
34 25 681
34 26 77
34 27 872
34 28 314
34 29 85
34 30 455
34 31 297
34 32 759
34 33 473
35 1 858
35 2 134
35 3 957
35 4 999
35 5 641
35 6 135
35 7 42
35 8 336
35 9 752
35 10 665
35 11 8
35 12 406
35 13 365
35 14 983
35 15 263
35 16 772
35 17 679
35 18 84
35 19 275
35 20 57
35 21 313
35 22 597
35 23 893
35 24 16
35 25 993
35 26 507
35 27 136
35 28 149
35 29 474
35 30 691
35 31 540
35 32 980
35 33 883
35 34 530
36 1 365
36 2 378
36 3 928
36 4 98
36 5 229
36 6 548
36 7 671
36 8 685
36 9 996
36 10 588
36 11 790
36 12 648
36 13 969
36 14 709
36 15 538
36 16 866
36 17 720
36 18 526
36 19 828
36 20 269
36 21 109
36 22 42
36 23 146
36 24 233
36 25 319
36 26 185
36 27 225
36 28 812
36 29 970
36 30 57
36 31 676
36 32 84
36 33 629
36 34 249
36 35 13
37 1 99
37 2 274
37 3 867
37 4 774
37 5 199
37 6 549
37 7 137
37 8 661
37 9 694
37 10 848
37 11 724
37 12 912
37 13 165
37 14 575
37 15 144
37 16 326
37 17 893
37 18 118
37 19 892
37 20 652
37 21 161
37 22 376
37 23 176
37 24 264
37 25 443
37 26 889
37 27 371
37 28 327
37 29 725
37 30 901
37 31 587
37 32 896
37 33 474
37 34 907
37 35 970
37 36 625
38 1 992
38 2 520
38 3 614
38 4 45
38 5 169
38 6 706
38 7 226
38 8 590
38 9 900
38 10 709
38 11 903
38 12 822
38 13 639
38 14 246
38 15 671
38 16 531
38 17 877
38 18 759
38 19 643
38 20 678
38 21 531
38 22 829
38 23 948
38 24 337
38 25 492
38 26 26
38 27 789
38 28 115
38 29 859
38 30 804
38 31 272
38 32 708
38 33 584
38 34 216
38 35 884
38 36 558
38 37 555
39 1 555
39 2 739
39 3 793
39 4 361
39 5 204
39 6 985
39 7 885
39 8 240
39 9 279
39 10 988
39 11 739
39 12 974
39 13 887
39 14 180
39 15 120
39 16 723
39 17 42
39 18 701
39 19 650
39 20 62
39 21 579
39 22 203
39 23 781
39 24 720
39 25 623
39 26 460
39 27 457
39 28 771
39 29 427
39 30 650
39 31 397
39 32 295
39 33 648
39 34 446
39 35 196
39 36 743
39 37 380
39 38 291
40 1 676
40 2 527
40 3 504
40 4 488
40 5 196
40 6 580
40 7 179
40 8 981
40 9 839
40 10 893
40 11 535
40 12 959
40 13 685
40 14 281
40 15 887
40 16 664
40 17 609
40 18 883
40 19 33
40 20 20
40 21 290
40 22 151
40 23 458
40 24 981
40 25 370
40 26 328
40 27 505
40 28 709
40 29 967
40 30 679
40 31 834
40 32 972
40 33 972
40 34 958
40 35 730
40 36 384
40 37 824
40 38 896
40 39 83
41 1 374
41 2 708
41 3 678
41 4 100
41 5 5
41 6 364
41 7 700
41 8 70
41 9 24
41 10 947
41 11 72
41 12 745
41 13 773
41 14 636
41 15 656
41 16 160
41 17 848
41 18 925
41 19 620
41 20 946
41 21 610
41 22 794
41 23 767
41 24 464
41 25 961
41 26 199
41 27 150
41 28 328
41 29 985
41 30 569
41 31 719
41 32 112
41 33 353
41 34 260
41 35 5
41 36 345
41 37 599
41 38 148
41 39 99
41 40 65
42 1 679
42 2 809
42 3 430
42 4 545
42 5 403
42 6 969
42 7 85
42 8 964
42 9 649
42 10 185
42 11 691
42 12 123
42 13 473
42 14 917
42 15 105
42 16 506
42 17 504
42 18 466
42 19 410
42 20 255
42 21 233
42 22 440
42 23 981
42 24 871
42 25 105
42 26 716
42 27 622
42 28 723
42 29 516
42 30 66
42 31 26
42 32 663
42 33 108
42 34 905
42 35 59
42 36 322
42 37 988
42 38 840
42 39 632
42 40 906
42 41 745
43 1 978
43 2 153
43 3 551
43 4 405
43 5 161
43 6 822
43 7 562
43 8 692
43 9 594
43 10 266
43 11 92
43 12 226
43 13 537
43 14 274
43 15 89
43 16 547
43 17 18
43 18 634
43 19 569
43 20 73
43 21 745
43 22 321
43 23 535
43 24 398
43 25 675
43 26 547
43 27 104
43 28 533
43 29 906
43 30 422
43 31 667
43 32 990
43 33 867
43 34 236
43 35 141
43 36 817
43 37 964
43 38 605
43 39 630
43 40 990
43 41 148
43 42 998
44 1 69
44 2 758
44 3 82
44 4 386
44 5 651
44 6 852
44 7 858
44 8 31
44 9 125
44 10 662
44 11 443
44 12 654
44 13 266
44 14 775
44 15 316
44 16 499
44 17 83
44 18 501
44 19 962
44 20 37
44 21 595
44 22 261
44 23 183
44 24 320
44 25 225
44 26 965
44 27 411
44 28 236
44 29 141
44 30 772
44 31 468
44 32 170
44 33 101
44 34 845
44 35 452
44 36 828
44 37 630
44 38 985
44 39 712
44 40 217
44 41 576
44 42 281
44 43 79
45 1 50
45 2 387
45 3 140
45 4 819
45 5 72
45 6 654
45 7 344
45 8 973
45 9 53
45 10 744
45 11 991
45 12 54
45 13 470
45 14 596
45 15 472
45 16 264
45 17 119
45 18 982
45 19 849
45 20 699
45 21 163
45 22 818
45 23 256
45 24 208
45 25 369
45 26 316
45 27 231
45 28 870
45 29 546
45 30 77
45 31 67
45 32 266
45 33 427
45 34 404
45 35 599
45 36 992
45 37 501
45 38 438
45 39 32
45 40 104
45 41 563
45 42 900
45 43 699
45 44 438
46 1 961
46 2 532
46 3 869
46 4 994
46 5 814
46 6 537
46 7 1000
46 8 824
46 9 701
46 10 593
46 11 48
46 12 126
46 13 566
46 14 251
46 15 725
46 16 467
46 17 852
46 18 787
46 19 822
46 20 340
46 21 118
46 22 831
46 23 989
46 24 501
46 25 634
46 26 320
46 27 590
46 28 754
46 29 719
46 30 614
46 31 523
46 32 156
46 33 815
46 34 831
46 35 117
46 36 810
46 37 566
46 38 708
46 39 506
46 40 696
46 41 387
46 42 578
46 43 93
46 44 234
46 45 292
47 1 254
47 2 988
47 3 515
47 4 977
47 5 902
47 6 551
47 7 395
47 8 413
47 9 220
47 10 415
47 11 893
47 12 463
47 13 476
47 14 623
47 15 583
47 16 252
47 17 236
47 18 748
47 19 919
47 20 329
47 21 842
47 22 144
47 23 696
47 24 838
47 25 955
47 26 680
47 27 67
47 28 234
47 29 734
47 30 612
47 31 835
47 32 275
47 33 460
47 34 455
47 35 932
47 36 305
47 37 682
47 38 989
47 39 307
47 40 83
47 41 195
47 42 782
47 43 632
47 44 652
47 45 407
47 46 849
48 1 546
48 2 14
48 3 941
48 4 340
48 5 362
48 6 609
48 7 495
48 8 374
48 9 434
48 10 843
48 11 321
48 12 397
48 13 620
48 14 194
48 15 858
48 16 706
48 17 542
48 18 620
48 19 344
48 20 7
48 21 578
48 22 294
48 23 484
48 24 133
48 25 774
48 26 911
48 27 477
48 28 319
48 29 128
48 30 72
48 31 969
48 32 633
48 33 924
48 34 501
48 35 764
48 36 478
48 37 74
48 38 96
48 39 333
48 40 261
48 41 642
48 42 70
48 43 468
48 44 628
48 45 1000
48 46 688
48 47 621
49 1 886
49 2 313
49 3 346
49 4 758
49 5 500
49 6 281
49 7 5
49 8 795
49 9 773
49 10 343
49 11 230
49 12 923
49 13 117
49 14 770
49 15 333
49 16 404
49 17 517
49 18 356
49 19 387
49 20 629
49 21 82
49 22 632
49 23 103
49 24 542
49 25 816
49 26 802
49 27 823
49 28 703
49 29 967
49 30 847
49 31 144
49 32 594
49 33 605
49 34 475
49 35 918
49 36 958
49 37 301
49 38 872
49 39 636
49 40 259
49 41 26
49 42 439
49 43 445
49 44 553
49 45 661
49 46 956
49 47 308
49 48 369
50 1 747
50 2 868
50 3 58
50 4 385
50 5 346
50 6 626
50 7 345
50 8 986
50 9 140
50 10 293
50 11 746
50 12 15
50 13 166
50 14 825
50 15 519
50 16 282
50 17 790
50 18 760
50 19 772
50 20 640
50 21 816
50 22 212
50 23 48
50 24 714
50 25 861
50 26 400
50 27 573
50 28 582
50 29 353
50 30 125
50 31 675
50 32 975
50 33 813
50 34 905
50 35 137
50 36 829
50 37 270
50 38 700
50 39 467
50 40 232
50 41 958
50 42 419
50 43 358
50 44 103
50 45 667
50 46 655
50 47 839
50 48 155
50 49 370
51 1 336
51 2 855
51 3 964
51 4 21
51 5 230
51 6 304
51 7 219
51 8 638
51 9 507
51 10 767
51 11 448
51 12 53
51 13 786
51 14 439
51 15 808
51 16 970
51 17 365
51 18 23
51 19 745
51 20 190
51 21 573
51 22 577
51 23 589
51 24 146
51 25 446
51 26 583
51 27 407
51 28 128
51 29 145
51 30 724
51 31 676
51 32 813
51 33 836
51 34 148
51 35 593
51 36 996
51 37 947
51 38 194
51 39 86
51 40 634
51 41 16
51 42 853
51 43 851
51 44 604
51 45 554
51 46 468
51 47 969
51 48 778
51 49 625
51 50 416
52 1 932
52 2 310
52 3 77
52 4 781
52 5 131
52 6 265
52 7 627
52 8 278
52 9 140
52 10 960
52 11 222
52 12 923
52 13 340
52 14 653
52 15 391
52 16 204
52 17 720
52 18 450
52 19 512
52 20 767
52 21 913
52 22 576
52 23 187
52 24 857
52 25 777
52 26 366
52 27 177
52 28 23
52 29 100
52 30 627
52 31 578
52 32 851
52 33 234
52 34 232
52 35 186
52 36 708
52 37 736
52 38 90
52 39 236
52 40 772
52 41 320
52 42 855
52 43 961
52 44 841
52 45 694
52 46 20
52 47 663
52 48 673
52 49 99
52 50 263
52 51 232
53 1 866
53 2 613
53 3 172
53 4 317
53 5 538
53 6 533
53 7 746
53 8 566
53 9 290
53 10 415
53 11 273
53 12 660
53 13 228
53 14 574
53 15 491
53 16 47
53 17 44
53 18 110
53 19 144
53 20 602
53 21 389
53 22 799
53 23 317
53 24 622
53 25 76
53 26 379
53 27 177
53 28 870
53 29 838
53 30 79
53 31 5
53 32 603
53 33 657
53 34 445
53 35 643
53 36 771
53 37 921
53 38 775
53 39 729
53 40 834
53 41 909
53 42 737
53 43 365
53 44 882
53 45 347
53 46 983
53 47 80
53 48 12
53 49 66
53 50 826
53 51 229
53 52 136
54 1 985
54 2 298
54 3 196
54 4 674
54 5 947
54 6 154
54 7 44
54 8 825
54 9 145
54 10 632
54 11 477
54 12 340
54 13 156
54 14 49
54 15 251
54 16 15
54 17 825
54 18 545
54 19 411
54 20 318
54 21 508
54 22 522
54 23 980
54 24 865
54 25 432
54 26 633
54 27 987
54 28 669
54 29 168
54 30 347
54 31 953
54 32 362
54 33 475
54 34 435
54 35 216
54 36 832
54 37 22
54 38 932
54 39 735
54 40 961
54 41 734
54 42 386
54 43 236
54 44 410
54 45 770
54 46 474
54 47 836
54 48 641
54 49 396
54 50 295
54 51 528
54 52 615
54 53 234
55 1 895
55 2 152
55 3 864
55 4 670
55 5 867
55 6 724
55 7 871
55 8 397
55 9 63
55 10 267
55 11 952
55 12 369
55 13 757
55 14 510
55 15 84
55 16 658
55 17 808
55 18 88
55 19 368
55 20 969
55 21 657
55 22 130
55 23 65
55 24 819
55 25 209
55 26 342
55 27 408
55 28 637
55 29 923
55 30 991
55 31 615
55 32 282
55 33 679
55 34 404
55 35 808
55 36 736
55 37 231
55 38 856
55 39 774
55 40 980
55 41 322
55 42 992
55 43 757
55 44 298
55 45 770
55 46 146
55 47 727
55 48 523
55 49 91
55 50 195
55 51 817
55 52 971
55 53 480
55 54 828
56 1 867
56 2 71
56 3 216
56 4 350
56 5 264
56 6 943
56 7 806
56 8 412
56 9 526
56 10 428
56 11 428
56 12 279
56 13 323
56 14 331
56 15 504
56 16 538
56 17 859
56 18 860
56 19 458
56 20 354
56 21 832
56 22 550
56 23 976
56 24 664
56 25 392
56 26 133
56 27 337
56 28 931
56 29 800
56 30 149
56 31 637
56 32 349
56 33 727
56 34 274
56 35 961
56 36 612
56 37 383
56 38 626
56 39 824
56 40 638
56 41 913
56 42 561
56 43 456
56 44 870
56 45 769
56 46 704
56 47 732
56 48 39
56 49 971
56 50 224
56 51 826
56 52 511
56 53 476
56 54 597
56 55 896
57 1 603
57 2 81
57 3 381
57 4 378
57 5 492
57 6 552
57 7 731
57 8 693
57 9 598
57 10 931
57 11 686
57 12 442
57 13 577
57 14 194
57 15 452
57 16 398
57 17 284
57 18 723
57 19 210
57 20 872
57 21 355
57 22 269
57 23 193
57 24 257
57 25 280
57 26 346
57 27 32
57 28 828
57 29 87
57 30 258
57 31 630
57 32 106
57 33 35
57 34 196
57 35 68
57 36 353
57 37 919
57 38 91
57 39 295
57 40 24
57 41 894
57 42 171
57 43 607
57 44 227
57 45 927
57 46 412
57 47 169
57 48 519
57 49 261
57 50 319
57 51 82
57 52 605
57 53 524
57 54 740
57 55 750
57 56 746
58 1 360
58 2 642
58 3 556
58 4 951
58 5 704
58 6 47
58 7 89
58 8 269
58 9 93
58 10 568
58 11 437
58 12 744
58 13 634
58 14 242
58 15 299
58 16 851
58 17 500
58 18 582
58 19 909
58 20 478
58 21 105
58 22 72
58 23 40
58 24 778
58 25 309
58 26 511
58 27 587
58 28 443
58 29 314
58 30 925
58 31 474
58 32 229
58 33 91
58 34 974
58 35 903
58 36 794
58 37 509
58 38 48
58 39 191
58 40 164
58 41 507
58 42 494
58 43 701
58 44 400
58 45 970
58 46 673
58 47 616
58 48 266
58 49 159
58 50 766
58 51 568
58 52 987
58 53 847
58 54 556
58 55 373
58 56 400
58 57 529
59 1 586
59 2 374
59 3 58
59 4 335
59 5 424
59 6 142
59 7 123
59 8 528
59 9 942
59 10 550
59 11 98
59 12 711
59 13 830
59 14 468
59 15 718
59 16 131
59 17 762
59 18 576
59 19 574
59 20 702
59 21 924
59 22 61
59 23 270
59 24 619
59 25 828
59 26 196
59 27 206
59 28 715
59 29 627
59 30 53
59 31 272
59 32 911
59 33 343
59 34 859
59 35 39
59 36 408
59 37 725
59 38 741
59 39 268
59 40 498
59 41 663
59 42 877
59 43 782
59 44 108
59 45 359
59 46 291
59 47 37
59 48 476
59 49 686
59 50 810
59 51 950
59 52 576
59 53 439
59 54 925
59 55 801
59 56 171
59 57 405
59 58 571
60 1 278
60 2 628
60 3 461
60 4 72
60 5 976
60 6 869
60 7 119
60 8 756
60 9 926
60 10 92
60 11 236
60 12 999
60 13 957
60 14 135
60 15 802
60 16 693
60 17 972
60 18 619
60 19 26
60 20 406
60 21 438
60 22 240
60 23 135
60 24 718
60 25 680
60 26 845
60 27 597
60 28 506
60 29 764
60 30 175
60 31 699
60 32 171
60 33 65
60 34 390
60 35 675
60 36 63
60 37 822
60 38 770
60 39 825
60 40 613
60 41 237
60 42 214
60 43 315
60 44 916
60 45 966
60 46 409
60 47 605
60 48 774
60 49 28
60 50 819
60 51 684
60 52 465
60 53 479
60 54 842
60 55 568
60 56 711
60 57 408
60 58 797
60 59 745
61 1 639
61 2 63
61 3 593
61 4 506
61 5 699
61 6 188
61 7 224
61 8 361
61 9 828
61 10 875
61 11 467
61 12 972
61 13 338
61 14 503
61 15 404
61 16 303
61 17 294
61 18 587
61 19 658
61 20 927
61 21 389
61 22 583
61 23 463
61 24 672
61 25 553
61 26 992
61 27 952
61 28 59
61 29 827
61 30 307
61 31 286
61 32 224
61 33 227
61 34 636
61 35 520
61 36 249
61 37 621
61 38 49
61 39 304
61 40 116
61 41 870
61 42 990
61 43 827
61 44 708
61 45 730
61 46 296
61 47 625
61 48 554
61 49 272
61 50 657
61 51 119
61 52 268
61 53 831
61 54 568
61 55 25
61 56 853
61 57 726
61 58 112
61 59 18
61 60 336
62 1 263
62 2 108
62 3 266
62 4 408
62 5 775
62 6 479
62 7 718
62 8 10
62 9 695
62 10 866
62 11 283
62 12 76
62 13 928
62 14 841
62 15 267
62 16 846
62 17 16
62 18 263
62 19 704
62 20 466
62 21 853
62 22 592
62 23 457
62 24 797
62 25 954
62 26 248
62 27 222
62 28 641
62 29 536
62 30 310
62 31 807
62 32 806
62 33 905
62 34 131
62 35 319
62 36 728
62 37 917
62 38 683
62 39 143
62 40 558
62 41 499
62 42 705
62 43 830
62 44 941
62 45 502
62 46 956
62 47 282
62 48 896
62 49 377
62 50 155
62 51 861
62 52 512
62 53 437
62 54 417
62 55 302
62 56 393
62 57 697
62 58 249
62 59 552
62 60 33
62 61 565
63 1 426
63 2 924
63 3 589
63 4 863
63 5 317
63 6 187
63 7 708
63 8 954
63 9 466
63 10 478
63 11 384
63 12 969
63 13 512
63 14 153
63 15 13
63 16 389
63 17 740
63 18 975
63 19 95
63 20 481
63 21 860
63 22 245
63 23 274
63 24 352
63 25 797
63 26 776
63 27 666
63 28 622
63 29 590
63 30 822
63 31 643
63 32 958
63 33 694
63 34 355
63 35 547
63 36 995
63 37 257
63 38 307
63 39 994
63 40 375
63 41 198
63 42 664
63 43 730
63 44 924
63 45 140
63 46 537
63 47 225
63 48 214
63 49 517
63 50 592
63 51 440
63 52 14
63 53 433
63 54 460
63 55 471
63 56 388
63 57 67
63 58 22
63 59 996
63 60 438
63 61 719
63 62 676
64 1 729
64 2 951
64 3 780
64 4 989
64 5 320
64 6 447
64 7 229
64 8 336
64 9 386
64 10 399
64 11 439
64 12 434
64 13 620
64 14 599
64 15 385
64 16 874
64 17 168
64 18 956
64 19 553
64 20 51
64 21 720
64 22 211
64 23 128
64 24 101
64 25 992
64 26 323
64 27 268
64 28 741
64 29 560
64 30 540
64 31 537
64 32 134
64 33 226
64 34 402
64 35 810
64 36 155
64 37 352
64 38 179
64 39 222
64 40 687
64 41 869
64 42 499
64 43 964
64 44 838
64 45 892
64 46 178
64 47 14
64 48 191
64 49 130
64 50 488
64 51 90
64 52 474
64 53 543
64 54 389
64 55 430
64 56 281
64 57 925
64 58 458
64 59 172
64 60 721
64 61 367
64 62 534
64 63 435
65 1 117
65 2 780
65 3 328
65 4 402
65 5 150
65 6 925
65 7 495
65 8 972
65 9 58
65 10 645
65 11 937
65 12 802
65 13 782
65 14 231
65 15 323
65 16 798
65 17 185
65 18 121
65 19 100
65 20 380
65 21 717
65 22 372
65 23 475
65 24 85
65 25 167
65 26 593
65 27 147
65 28 317
65 29 365
65 30 285
65 31 772
65 32 322
65 33 979
65 34 774
65 35 429
65 36 695
65 37 773
65 38 191
65 39 580
65 40 992
65 41 965
65 42 163
65 43 292
65 44 259
65 45 554
65 46 197
65 47 708
65 48 542
65 49 752
65 50 908
65 51 35
65 52 710
65 53 904
65 54 555
65 55 541
65 56 129
65 57 506
65 58 580
65 59 330
65 60 37
65 61 228
65 62 73
65 63 881
65 64 657
66 1 41
66 2 365
66 3 621
66 4 385
66 5 855
66 6 199
66 7 24
66 8 604
66 9 272
66 10 151
66 11 995
66 12 955
66 13 355
66 14 259
66 15 547
66 16 120
66 17 521
66 18 41
66 19 19
66 20 439
66 21 954
66 22 353
66 23 332
66 24 925
66 25 161
66 26 765
66 27 60
66 28 495
66 29 543
66 30 415
66 31 296
66 32 484
66 33 120
66 34 509
66 35 573
66 36 752
66 37 787
66 38 932
66 39 360
66 40 966
66 41 721
66 42 647
66 43 857
66 44 852
66 45 834
66 46 823
66 47 128
66 48 498
66 49 379
66 50 893
66 51 792
66 52 27
66 53 116
66 54 976
66 55 799
66 56 190
66 57 638
66 58 354
66 59 40
66 60 712
66 61 755
66 62 951
66 63 789
66 64 454
66 65 61
67 1 998
67 2 231
67 3 693
67 4 57
67 5 335
67 6 590
67 7 112
67 8 467
67 9 30
67 10 604
67 11 289
67 12 615
67 13 267
67 14 343
67 15 776
67 16 11
67 17 683
67 18 640
67 19 67
67 20 500
67 21 611
67 22 630
67 23 26
67 24 621
67 25 907
67 26 150
67 27 600
67 28 53
67 29 303
67 30 4
67 31 868
67 32 269
67 33 488
67 34 351
67 35 754
67 36 780
67 37 346
67 38 722
67 39 973
67 40 604
67 41 54
67 42 403
67 43 7
67 44 834
67 45 970
67 46 217
67 47 209
67 48 425
67 49 510
67 50 925
67 51 313
67 52 604
67 53 456
67 54 782
67 55 955
67 56 500
67 57 376
67 58 979
67 59 992
67 60 898
67 61 115
67 62 984
67 63 698
67 64 237
67 65 531
67 66 35
68 1 158
68 2 223
68 3 927
68 4 293
68 5 415
68 6 703
68 7 872
68 8 398
68 9 189
68 10 662
68 11 343
68 12 444
68 13 246
68 14 485
68 15 388
68 16 617
68 17 718
68 18 852
68 19 747
68 20 9
68 21 946
68 22 905
68 23 130
68 24 357
68 25 672
68 26 559
68 27 75
68 28 704
68 29 625
68 30 82
68 31 606
68 32 255
68 33 841
68 34 345
68 35 99
68 36 909
68 37 270
68 38 335
68 39 78
68 40 239
68 41 482
68 42 844
68 43 864
68 44 916
68 45 558
68 46 441
68 47 270
68 48 826
68 49 457
68 50 119
68 51 794
68 52 399
68 53 449
68 54 237
68 55 989
68 56 887
68 57 411
68 58 637
68 59 954
68 60 605
68 61 67
68 62 74
68 63 152
68 64 390
68 65 479
68 66 324
68 67 967
69 1 770
69 2 363
69 3 611
69 4 728
69 5 614
69 6 34
69 7 226
69 8 102
69 9 252
69 10 67
69 11 463
69 12 86
69 13 332
69 14 965
69 15 267
69 16 9
69 17 898
69 18 424
69 19 196
69 20 255
69 21 474
69 22 993
69 23 606
69 24 632
69 25 120
69 26 211
69 27 165
69 28 596
69 29 754
69 30 522
69 31 86
69 32 759
69 33 204
69 34 548
69 35 706
69 36 377
69 37 778
69 38 525
69 39 287
69 40 755
69 41 334
69 42 983
69 43 172
69 44 769
69 45 116
69 46 965
69 47 673
69 48 939
69 49 849
69 50 374
69 51 316
69 52 745
69 53 858
69 54 250
69 55 336
69 56 130
69 57 210
69 58 45
69 59 524
69 60 386
69 61 129
69 62 224
69 63 842
69 64 848
69 65 198
69 66 735
69 67 395
69 68 109
70 1 88
70 2 196
70 3 673
70 4 679
70 5 833
70 6 830
70 7 168
70 8 292
70 9 894
70 10 500
70 11 760
70 12 296
70 13 516
70 14 377
70 15 495
70 16 818
70 17 146
70 18 89
70 19 626
70 20 647
70 21 890
70 22 388
70 23 67
70 24 25
70 25 295
70 26 673
70 27 614
70 28 793
70 29 929
70 30 927
70 31 582
70 32 569
70 33 533
70 34 881
70 35 723
70 36 918
70 37 745
70 38 480
70 39 563
70 40 693
70 41 643
70 42 963
70 43 534
70 44 989
70 45 621
70 46 115
70 47 525
70 48 410
70 49 340
70 50 530
70 51 740
70 52 581
70 53 768
70 54 923
70 55 986
70 56 97
70 57 563
70 58 828
70 59 768
70 60 362
70 61 295
70 62 244
70 63 830
70 64 992
70 65 263
70 66 39
70 67 3
70 68 737
70 69 917
71 1 183
71 2 514
71 3 110
71 4 139
71 5 130
71 6 106
71 7 155
71 8 872
71 9 906
71 10 625
71 11 65
71 12 871
71 13 730
71 14 932
71 15 569
71 16 567
71 17 224
71 18 284
71 19 301
71 20 304
71 21 540
71 22 548
71 23 567
71 24 447
71 25 959
71 26 896
71 27 235
71 28 122
71 29 784
71 30 841
71 31 652
71 32 586
71 33 599
71 34 752
71 35 811
71 36 483
71 37 192
71 38 231
71 39 191
71 40 495
71 41 737
71 42 972
71 43 962
71 44 130
71 45 19
71 46 982
71 47 516
71 48 665
71 49 795
71 50 303
71 51 482
71 52 482
71 53 595
71 54 602
71 55 698
71 56 320
71 57 529
71 58 260
71 59 812
71 60 181
71 61 920
71 62 849
71 63 462
71 64 900
71 65 828
71 66 114
71 67 228
71 68 633
71 69 784
71 70 836
72 1 783
72 2 765
72 3 292
72 4 231
72 5 954
72 6 1000
72 7 928
72 8 723
72 9 624
72 10 619
72 11 92
72 12 258
72 13 665
72 14 183
72 15 735
72 16 517
72 17 347
72 18 162
72 19 625
72 20 655
72 21 918
72 22 266
72 23 966
72 24 466
72 25 281
72 26 460
72 27 445
72 28 74
72 29 984
72 30 937
72 31 16
72 32 552
72 33 941
72 34 539
72 35 986
72 36 88
72 37 590
72 38 382
72 39 224
72 40 576
72 41 423
72 42 702
72 43 562
72 44 767
72 45 79
72 46 150
72 47 697
72 48 350
72 49 448
72 50 70
72 51 163
72 52 602
72 53 468
72 54 490
72 55 191
72 56 479
72 57 565
72 58 843
72 59 525
72 60 276
72 61 925
72 62 665
72 63 507
72 64 243
72 65 27
72 66 784
72 67 995
72 68 779
72 69 155
72 70 735
72 71 938
73 1 79
73 2 808
73 3 429
73 4 670
73 5 380
73 6 197
73 7 311
73 8 240
73 9 158
73 10 299
73 11 516
73 12 337
73 13 937
73 14 122
73 15 786
73 16 647
73 17 559
73 18 151
73 19 136
73 20 681
73 21 61
73 22 154
73 23 538
73 24 413
73 25 542
73 26 786
73 27 112
73 28 287
73 29 624
73 30 696
73 31 600
73 32 397
73 33 421
73 34 62
73 35 94
73 36 932
73 37 114
73 38 760
73 39 312
73 40 176
73 41 530
73 42 601
73 43 883
73 44 649
73 45 345
73 46 320
73 47 437
73 48 196
73 49 792
73 50 281
73 51 471
73 52 88
73 53 5
73 54 62
73 55 257
73 56 462
73 57 376
73 58 382
73 59 309
73 60 656
73 61 556
73 62 52
73 63 133
73 64 259
73 65 967
73 66 893
73 67 296
73 68 944
73 69 983
73 70 814
73 71 46
73 72 404
74 1 118
74 2 485
74 3 992
74 4 939
74 5 890
74 6 313
74 7 608
74 8 544
74 9 210
74 10 636
74 11 548
74 12 522
74 13 442
74 14 355
74 15 42
74 16 982
74 17 505
74 18 422
74 19 864
74 20 749
74 21 653
74 22 891
74 23 639
74 24 535
74 25 799
74 26 466
74 27 473
74 28 417
74 29 528
74 30 735
74 31 188
74 32 938
74 33 169
74 34 546
74 35 637
74 36 420
74 37 548
74 38 192
74 39 875
74 40 272
74 41 323
74 42 369
74 43 175
74 44 387
74 45 2
74 46 91
74 47 154
74 48 932
74 49 46
74 50 994
74 51 508
74 52 99
74 53 670
74 54 737
74 55 101
74 56 632
74 57 236
74 58 428
74 59 433
74 60 204
74 61 350
74 62 268
74 63 723
74 64 944
74 65 52
74 66 871
74 67 113
74 68 705
74 69 735
74 70 920
74 71 758
74 72 866
74 73 648
